NAME:8_HardATSPLIB_8
TYPE: ATSP
DIMENSION: 8
EDGE_WEIGHT_TYPE: EXPLICIT
EDGE_WEIGHT_FORMAT: FULL_MATRIX
EDGE_WEIGHT_SECTION
0	7	9	10	11	8	4	8
0	0	5	3	4	5	4	2
1	1	0	1	5	6	5	3
0	3	2	0	7	8	4	5
9	9	8	9	0	11	0	11
2	2	4	5	5	0	5	0
13	13	15	16	7	11	0	11
2	2	7	5	5	3	5	0
